qbf_easy_train/easy_4538_SAT.qdimacs
p cnf 22 51
a 1 18 14 0
e 2 3 4 5 6 7 8 9 10 11 12 13 15 16 17 19 20 21 22 0
-1 -2 0
1 -2 0
-5 3 0
-5 -4 0
-3 4 5 0
-6 5 0
-6 3 0
-5 -3 6 0
-9 1 0
-9 -8 0
-1 8 9 0
10 7 0
10 9 0
-7 -9 -10 0
-6 10 -11 0
6 -10 -11 0
-6 -10 11 0
6 10 11 0
12 4 0
12 -1 0
-4 1 -12 0
-11 -12 -13 0
11 12 -13 0
-11 12 13 0
11 -12 13 0
-2 -13 -14 0
2 13 -14 0
-2 13 14 0
2 -13 14 0
16 15 0
16 -8 0
-15 8 -16 0
19 -18 0
19 1 0
18 -1 -19 0
20 17 0
20 -19 0
-17 19 -20 0
21 16 0
21 20 0
-16 -20 -21 0
14 -21 -22 0
-14 21 -22 0
14 21 22 0
-14 -21 22 0
-6 -16 20 2 0
5 -19 20 -8 12 0
-4 22 -19 -8 1 -21 3 0
-2 -9 20 -3 -8 0
12 14 10 19 -1 0
22 0
