sat_easy_train/easy_4538_SAT.dimacs
p cnf 85 264
-1 -2 -3 0
1 2 -3 0
-1 2 3 0
1 -2 3 0
6 4 0
6 5 0
-4 -5 -6 0
-3 6 -7 0
3 -6 -7 0
-3 -6 7 0
3 6 7 0
-8 -9 0
8 -9 0
11 -6 0
11 -10 0
6 10 -11 0
-14 -12 0
-14 13 0
12 -13 14 0
15 -12 0
15 -14 0
12 14 -15 0
-16 -11 0
-16 15 0
11 -15 16 0
17 9 0
17 -16 0
-9 16 -17 0
-18 3 0
-18 -1 0
-3 1 18 0
-4 -18 -19 0
4 18 -19 0
-4 18 19 0
4 -18 19 0
20 11 0
20 18 0
-11 -18 -20 0
20 -21 -22 0
-20 21 -22 0
20 21 22 0
-20 -21 22 0
23 -5 -24 0
-23 5 -24 0
23 5 24 0
-23 -5 24 0
-25 -22 0
-25 -24 0
22 24 25 0
-26 -25 0
-26 15 0
25 -15 26 0
27 19 0
27 -26 0
-19 26 -27 0
-17 -27 -28 0
17 27 -28 0
-17 27 28 0
17 -27 28 0
-30 29 0
-30 -12 0
-29 12 30 0
-31 -28 0
-31 -30 0
28 30 31 0
7 -31 -32 0
-7 31 -32 0
7 31 32 0
-7 -31 32 0
35 -34 0
35 4 0
34 -4 -35 0
36 3 0
36 35 0
-3 -35 -36 0
-36 -3 -37 0
36 3 -37 0
-36 3 37 0
36 -3 37 0
38 37 0
38 -20 0
-37 20 -38 0
39 33 0
39 -38 0
-33 38 -39 0
-11 -29 -40 0
11 29 -40 0
-11 29 40 0
11 -29 40 0
-41 -40 0
-41 -36 0
40 36 41 0
39 -41 -42 0
-39 41 -42 0
39 41 42 0
-39 -41 42 0
-44 29 0
-44 -5 0
-29 5 44 0
46 34 0
46 -45 0
-34 45 -46 0
-47 5 0
-47 -46 0
-5 46 47 0
23 -47 -48 0
-23 47 -48 0
23 47 48 0
-23 -47 48 0
-49 -44 0
-49 -48 0
44 48 49 0
-50 43 0
-50 -49 0
-43 49 50 0
51 11 0
51 -3 0
-11 3 -51 0
1 -51 -52 0
-1 51 -52 0
1 51 52 0
-1 -51 52 0
-50 -52 -53 0
50 52 -53 0
-50 52 53 0
50 -52 53 0
10 5 -54 0
-10 -5 -54 0
10 -5 54 0
-10 5 54 0
54 3 -55 0
-54 -3 -55 0
54 -3 55 0
-54 3 55 0
55 18 -56 0
-55 -18 -56 0
55 -18 56 0
-55 18 56 0
57 -5 0
57 -56 0
5 56 -57 0
-58 53 0
-58 57 0
-53 -57 58 0
-59 13 0
-59 33 0
-13 -33 59 0
60 -29 0
60 36 0
29 -36 -60 0
59 60 -61 0
-59 -60 -61 0
59 -60 61 0
-59 60 61 0
-62 58 0
-62 -61 0
-58 61 62 0
63 -42 0
63 62 0
42 -62 -63 0
64 32 0
64 -63 0
-32 63 -64 0
6 44 -65 0
-6 -44 -65 0
6 -44 65 0
-6 44 65 0
-66 -6 0
-66 33 0
6 -33 66 0
-67 65 0
-67 -66 0
-65 66 67 0
68 64 0
68 -67 0
-64 67 -68 0
-69 45 0
-69 -14 0
-45 14 69 0
-70 45 0
-70 -23 0
-45 23 70 0
71 35 0
71 2 0
-35 -2 -71 0
47 71 -72 0
-47 -71 -72 0
47 -71 72 0
-47 71 72 0
73 -70 0
73 72 0
70 -72 -73 0
70 -14 -75 0
-70 14 -75 0
70 14 75 0
-70 -14 75 0
-76 74 0
-76 -75 0
-74 75 76 0
-73 76 -77 0
73 -76 -77 0
-73 -76 77 0
73 76 77 0
-69 77 -78 0
69 -77 -78 0
-69 -77 78 0
69 77 78 0
-11 -13 -79 0
11 13 -79 0
-11 13 79 0
11 -13 79 0
80 78 0
80 79 0
-78 -79 -80 0
-81 59 0
-81 70 0
-59 -70 81 0
-82 23 0
-82 14 0
-23 -14 82 0
-83 81 0
-83 -82 0
-81 82 83 0
-84 -80 0
-84 -83 0
80 83 84 0
-85 68 0
-85 -84 0
-68 84 85 0
-72 20 2 48 0
11 42 74 6 -67 0
13 -30 0
4 66 0
-60 -10 -56 -35 0
-32 50 4 -12 0
-27 67 32 -36 0
68 34 12 -3 36 69 0
71 -25 14 -59 22 0
46 85 74 -61 -62 0
-47 81 57 -26 0
31 56 -36 55 0
7 -31 81 -16 0
31 34 -66 -84 0
46 5 63 0
-70 -28 -42 72 40 0
35 49 78 -70 47 0
-3 18 46 -6 -27 0
-75 60 -71 0
10 -47 -46 29 32 38 0
85 61 -67 58 -77 0
37 49 23 0
71 -31 0
11 51 9 -6 14 0
46 32 4 22 38 0
-16 75 43 0
14 -3 29 0
-80 67 20 -52 0
81 -77 -80 69 29 -46 0
-83 31 59 65 6 0
-85 73 -76 -24 0
48 27 -82 0
69 -29 -6 -39 10 26 0
75 71 -22 33 74 0
85 0
